<number of tasks>
50

<cycle time>
1000

<order strength>
0.196


<task times>
1 209
2 230
3 92
4 549
5 484
6 256
7 158
8 62
9 65
10 187
11 111
12 678
13 340
14 147
15 199
16 566
17 513
18 178
19 101
20 178
21 47
22 120
23 70
24 111
25 235
26 159
27 128
28 230
29 82
30 188
31 87
32 259
33 347
34 102
35 26
36 67
37 390
38 167
39 448
40 104
41 234
42 516
43 53
44 36
45 52
46 193
47 144
48 210
49 228
50 387

<precedence relations>
1,7
2,8
2,10
2,13
3,9
3,10
4,26
5,11
5,12
6,37
7,14
8,16
9,17
10,15
10,19
11,18
11,42
11,45
14,21
15,20
16,23
17,24
18,22
19,25
19,26
19,27
20,28
21,30
22,29
23,31
26,49
27,41
27,50
28,32
29,33
30,34
31,35
31,36
31,37
32,41
33,38
34,40
35,39
35,42
36,41
36,42
38,44
39,43
40,45
41,46
41,47
41,48
41,49
42,50

<end>
